10
[[-1, 315011971, 1946908451, 63145644, 45460322, 0, 422396217, 2121472905, 395423511, 742752790],[315011971, -1, 1758068920, 1120861991, 910840094, 1628732704, 0, 679900370, 1881826564, 805039021],[1946908451, 1758068920, -1, 0, 1069416540, 0, 1066155702, 286629233, 885178146, 84327624],[63145644, 1120861991, 0, -1, 1505146634, 409381804, 979486790, 1706448539, 1293557175, 0],[45460322, 910840094, 1069416540, 1505146634, -1, 292917507, 1527507816, 407369854, 1799861331, 1910893808],[0, 1628732704, 0, 409381804, 292917507, -1, 1512116143, 0, 688441910, 2062551722],[422396217, 0, 1066155702, 979486790, 1527507816, 1512116143, -1, 894190745, 273931139, 2057830403],[2121472905, 679900370, 286629233, 1706448539, 407369854, 0, 894190745, -1, 0, 27991223],[395423511, 1881826564, 885178146, 1293557175, 1799861331, 688441910, 273931139, 0, -1, 502309305],[742752790, 805039021, 84327624, 0, 1910893808, 2062551722, 2057830403, 27991223, 502309305, -1]]